************************************************************************
file with basedata            : md337_.bas
initial value random generator: 941152466
************************************************************************
projects                      :  1
jobs (incl. supersource/sink ):  22
horizon                       :  160
RESOURCES
  - renewable                 :  2   R
  - nonrenewable              :  2   N
  - doubly constrained        :  0   D
************************************************************************
PROJECT INFORMATION:
pronr.  #jobs rel.date duedate tardcost  MPM-Time
    1     20      0       26        6       26
************************************************************************
PRECEDENCE RELATIONS:
jobnr.    #modes  #successors   successors
   1        1          3           2   3   4
   2        3          2           6   9
   3        3          3           5   9  17
   4        3          3           9  11  14
   5        3          2          13  18
   6        3          3           7   8  10
   7        3          2          12  20
   8        3          3          12  14  17
   9        3          1          21
  10        3          1          11
  11        3          3          15  17  21
  12        3          1          18
  13        3          3          14  15  16
  14        3          1          19
  15        3          2          19  20
  16        3          2          20  21
  17        3          1          18
  18        3          1          19
  19        3          1          22
  20        3          1          22
  21        3          1          22
  22        1          0        
************************************************************************
REQUESTS/DURATIONS:
jobnr. mode duration  R 1  R 2  N 1  N 2
------------------------------------------------------------------------
  1      1     0       0    0    0    0
  2      1     4       3    0    7    0
         2     5       0    8    0    3
         3    10       0    8    0    2
  3      1     1       0    3    0    9
         2     5       6    0    8    0
         3     7       5    0    7    0
  4      1     2       0   10    0    9
         2     9      10    0    0    9
         3    10       0    4    0    6
  5      1     4       0    9    0    7
         2     7       0    9    0    5
         3     9       0    8    8    0
  6      1     5       4    0    7    0
         2     5       0    4    6    0
         3     7       0    4    0    5
  7      1     1       8    0    5    0
         2     6       8    0    0    8
         3    10       7    0    3    0
  8      1     2       7    0    9    0
         2     2       0    9    0    7
         3     7       0    8   10    0
  9      1     2       0    7    0   10
         2     3       3    0    0    7
         3     4       2    0    5    0
 10      1     4       0    9    0    6
         2     9       0    5    0    3
         3     9       4    0    0    6
 11      1     3       0    8    8    0
         2     9       0    5    0    3
         3    10       1    0    3    0
 12      1     7       6    0    0    2
         2     8       0    6    0    2
         3     8       0    7    0    1
 13      1     7       0    4    1    0
         2     7       7    0    0    8
         3     8       6    0    0    8
 14      1     3       4    0    0    3
         2     8       0    8    8    0
         3     8       0    8    0    2
 15      1     3       0    4    0    8
         2     6       9    0    0    7
         3     8       0    3    0    6
 16      1     3       0    9    9    0
         2     4       0    8    0    8
         3     8       0    7    8    0
 17      1     1       0    3    3    0
         2     1       3    0    0    6
         3     8       0    2    3    0
 18      1     7       0    8    2    0
         2    10       4    0    0    9
         3    10       0    8    1    0
 19      1     1       9    0    8    0
         2     5       9    0    0    8
         3     8       7    0    0    3
 20      1     4       0    9    0    3
         2     6       0    9    7    0
         3     6       3    0    0    3
 21      1     2       4    0    0    8
         2     3       3    0    0    6
         3     5       3    0    0    5
 22      1     0       0    0    0    0
************************************************************************
RESOURCEAVAILABILITIES:
  R 1  R 2  N 1  N 2
   13   14   72  103
************************************************************************
MAXIMAL LAGS:
from  to  type  delay
    1   22   ES      0
    1    2   ES      0
    2   22   ES      0
    1    3   ES      0
    3   22   ES      0
    1    4   ES      0
    4   22   ES      0
    1    5   ES      0
    5   22   ES      0
    1    6   ES      0
    6   22   ES      0
    1    7   ES      0
    7   22   ES      0
    1    8   ES      0
    8   22   ES      0
    1    9   ES      0
    9   22   ES      0
    1   10   ES      0
   10   22   ES      0
    1   11   ES      0
   11   22   ES      0
    1   12   ES      0
   12   22   ES      0
    1   13   ES      0
   13   22   ES      0
    1   14   ES      0
   14   22   ES      0
    1   15   ES      0
   15   22   ES      0
    1   16   ES      0
   16   22   ES      0
    1   17   ES      0
   17   22   ES      0
    1   18   ES      0
   18   22   ES      0
    1   19   ES      0
   19   22   ES      0
    1   20   ES      0
   20   22   ES      0
    1   21   ES      0
   21   22   ES      0
    1   22   ES      0
    2    6   SS     11
    2    6   SE    -10
    2    6   ES      5
    2    6   EE      7
    2    9   SS      0
    2    9   SE    -10
    9    2   SE      0
    2    9   ES      0
    2    9   EE     -4
    3    5   SS     -7
    3    5   SE     -5
    3    5   ES     12
    3    5   EE      0
    3    9   SS    -10
    3    9   SE    -12
    3    9   ES     -6
    3    9   EE     -7
    3   17   SS      0
    3   17   SE     12
    3   17   ES      0
    3   17   EE     -3
    4    9   SS      8
    4    9   SE     12
    4    9   ES      8
    4    9   EE     -8
    4   11   SS     -9
    4   11   SE     -3
    4   11   ES      3
    4   11   EE      1
    4   14   SS     11
    4   14   SE     -3
    4   14   ES      9
    4   14   EE      7
    5   13   SS     -8
    5   13   SE     -1
    5   13   ES      9
    5   13   EE     -9
    5   18   SS     -1
    5   18   SE      4
    5   18   ES     -6
    5   18   EE      3
    6    7   SS      2
    6    7   SE      0
    6    7   ES      3
    6    7   EE     -4
    6    8   SS      6
    6    8   SE      7
    6    8   ES      1
    6    8   EE    -10
    6   10   SS     12
    6   10   SE      1
    6   10   ES     -1
    6   10   EE      7
    7   12   SS     -7
    7   12   SE      1
    7   12   ES      8
    7   12   EE      1
    7   20   SS    -10
    7   20   SE    -11
    7   20   ES      4
    7   20   EE     -2
    8   12   SS      2
    8   12   SE      9
    8   12   ES     -5
    8   12   EE      8
    8   14   SS      9
    8   14   SE     10
    8   14   ES     -8
    8   14   EE      3
    8   17   SS      4
    8   17   SE      8
    8   17   ES      8
    8   17   EE      4
    9   21   SS    -10
    9   21   SE     -3
    9   21   ES      2
    9   21   EE      1
   10   11   SS    -10
   10   11   SE      3
   10   11   ES     -3
   10   11   EE     -8
   11   15   SS     -8
   11   15   SE      9
   11   15   ES     -3
   11   15   EE     -5
   11   17   SS      4
   11   17   SE      1
   11   17   ES     -3
   11   17   EE      6
   11   21   SS    -11
   11   21   SE      5
   11   21   ES    -10
   11   21   EE    -11
   12   18   SS      4
   12   18   SE     -9
   12   18   ES      4
   12   18   EE      1
   13   14   SS      1
   13   14   SE     -9
   13   14   ES      2
   13   14   EE      9
   13   15   SS     11
   13   15   SE      6
   13   15   ES     -4
   13   15   EE     -1
   13   16   SS     -4
   13   16   SE      6
   13   16   ES    -10
   13   16   EE     12
   14   19   SS      4
   14   19   SE    -12
   14   19   ES     -9
   14   19   EE     11
   15   19   SS      9
   15   19   SE      2
   15   19   ES     -7
   15   19   EE     -7
   15   20   SS      0
   15   20   SE    -11
   15   20   ES    -10
   15   20   EE      1
   16   20   SS     10
   16   20   SE     -3
   16   20   ES     -2
   16   20   EE      6
   16   21   SS     11
   16   21   SE      2
   16   21   ES     12
   16   21   EE      9
   17   18   SS      2
   17   18   SE      7
   17   18   ES     -4
   17   18   EE     -2
   18   19   SS     -7
   18   19   SE     -6
   18   19   ES     -7
   18   19   EE    -10
************************************************************************
